
Gurobi 5.5.0 (mac64) logging started Wed Apr 23 12:09:58 2014


Gurobi 5.5.0 (mac64) logging started Wed Apr 23 19:40:20 2014


Gurobi 5.5.0 (mac64) logging started Thu Apr 24 10:54:16 2014


Gurobi 5.5.0 (mac64) logging started Thu Apr 24 10:59:00 2014


Gurobi 5.5.0 (mac64) logging started Thu Apr 24 13:20:14 2014


Gurobi 5.5.0 (mac64) logging started Thu Apr 24 13:35:48 2014


Gurobi 5.5.0 (mac64) logging started Thu Apr 24 13:42:18 2014


Gurobi 5.5.0 (mac64) logging started Thu Apr 24 14:11:19 2014


Gurobi 5.5.0 (mac64) logging started Thu Apr 24 23:20:05 2014


Gurobi 5.5.0 (mac64) logging started Thu Apr 24 23:39:21 2014


Gurobi 5.5.0 (mac64) logging started Fri Apr 25 00:11:44 2014


Gurobi 5.5.0 (mac64) logging started Tue May  6 16:53:49 2014


Gurobi 5.5.0 (mac64) logging started Thu May  8 22:27:09 2014


Gurobi 5.5.0 (mac64) logging started Thu May  8 22:29:31 2014


Gurobi 5.5.0 (mac64) logging started Thu May  8 22:37:23 2014


Gurobi 5.5.0 (mac64) logging started Thu May  8 22:38:20 2014


Gurobi 5.5.0 (mac64) logging started Thu May  8 22:41:57 2014


Gurobi 5.5.0 (mac64) logging started Thu May  8 22:43:06 2014


Gurobi 5.5.0 (mac64) logging started Thu May  8 22:46:31 2014


Gurobi 5.5.0 (mac64) logging started Thu May  8 22:47:21 2014


Gurobi 5.5.0 (mac64) logging started Thu May  8 22:48:07 2014


Gurobi 5.5.0 (mac64) logging started Thu May  8 22:50:05 2014


Gurobi 5.5.0 (mac64) logging started Thu May  8 22:54:26 2014


Gurobi 5.5.0 (mac64) logging started Thu May  8 22:55:02 2014


Gurobi 5.5.0 (mac64) logging started Thu May  8 22:56:41 2014


Gurobi 5.5.0 (mac64) logging started Thu May  8 23:14:41 2014


Gurobi 5.5.0 (mac64) logging started Thu May  8 23:16:54 2014


Gurobi 5.5.0 (mac64) logging started Thu May  8 23:17:52 2014


Gurobi 5.5.0 (mac64) logging started Thu May  8 23:18:23 2014


Gurobi 5.5.0 (mac64) logging started Thu May  8 23:19:42 2014


Gurobi 5.5.0 (mac64) logging started Thu May  8 23:20:27 2014


Gurobi 5.5.0 (mac64) logging started Thu May  8 23:21:03 2014


Gurobi 5.5.0 (mac64) logging started Thu May  8 23:21:33 2014


Gurobi 5.5.0 (mac64) logging started Thu May  8 23:22:45 2014


Gurobi 5.5.0 (mac64) logging started Thu May  8 23:23:55 2014


Gurobi 5.5.0 (mac64) logging started Thu May  8 23:24:31 2014


Gurobi 5.5.0 (mac64) logging started Thu May  8 23:24:48 2014


Gurobi 5.5.0 (mac64) logging started Thu May  8 23:25:51 2014


Gurobi 5.5.0 (mac64) logging started Thu May  8 23:27:56 2014


Gurobi 5.5.0 (mac64) logging started Thu May  8 23:30:06 2014


Gurobi 5.5.0 (mac64) logging started Thu May  8 23:54:20 2014


Gurobi 5.5.0 (mac64) logging started Fri May  9 00:25:10 2014


Gurobi 5.5.0 (mac64) logging started Fri May  9 00:32:42 2014


Gurobi 5.5.0 (mac64) logging started Sat May 10 17:05:49 2014


Gurobi 5.5.0 (mac64) logging started Sun May 11 13:08:36 2014


Gurobi 5.5.0 (mac64) logging started Sun May 11 14:04:00 2014


Gurobi 5.5.0 (mac64) logging started Sun May 11 14:14:41 2014


Gurobi 5.5.0 (mac64) logging started Sun May 11 14:14:56 2014


Gurobi 5.5.0 (mac64) logging started Sun May 11 14:31:00 2014


Gurobi 5.5.0 (mac64) logging started Sun May 11 14:50:09 2014


Gurobi 5.5.0 (mac64) logging started Sun May 11 14:58:13 2014


Gurobi 5.5.0 (mac64) logging started Sun May 11 15:22:28 2014


Gurobi 5.5.0 (mac64) logging started Sun May 11 15:40:02 2014


Gurobi 5.5.0 (mac64) logging started Sun May 11 16:06:29 2014


Gurobi 5.5.0 (mac64) logging started Sun May 11 20:27:39 2014


Gurobi 5.5.0 (mac64) logging started Sun May 11 22:12:17 2014


Gurobi 5.5.0 (mac64) logging started Mon May 12 11:53:56 2014


Gurobi 5.5.0 (mac64) logging started Mon May 12 16:09:07 2014


Gurobi 5.5.0 (mac64) logging started Mon May 12 16:57:13 2014

